(set-info :smt-lib-version 2.6)
(set-logic QF_NIA)
(set-info :source |AProve team, see http://aprove.informatik.rwth-aachen.de/, submitted for SMT-COMP 2014|)
(set-info :category "industrial")
(set-info :status sat)
(declare-fun b__262 () Int)
(declare-fun a__57 () Int)
(declare-fun a__2 () Int)
(declare-fun a__60 () Int)
(declare-fun a__64 () Int)
(declare-fun a__68 () Int)
(declare-fun a__72 () Int)
(declare-fun a__11 () Int)
(declare-fun a__17 () Int)
(declare-fun a__21 () Int)
(declare-fun a__25 () Int)
(declare-fun a__34 () Int)
(declare-fun a__38 () Int)
(declare-fun a__42 () Int)
(declare-fun a__46 () Int)
(declare-fun a__76 () Int)
(declare-fun a__90 () Int)
(declare-fun a__116 () Int)
(declare-fun a__93 () Int)
(declare-fun a__119 () Int)
(declare-fun a__133 () Int)
(declare-fun a__145 () Int)
(declare-fun a__29 () Int)
(declare-fun a__50 () Int)
(declare-fun a__99 () Int)
(declare-fun a__239 () Int)
(declare-fun a__102 () Int)
(declare-fun a__112 () Int)
(declare-fun a__127 () Int)
(declare-fun a__141 () Int)
(declare-fun a__106 () Int)
(declare-fun a__123 () Int)
(declare-fun a__137 () Int)
(declare-fun a__149 () Int)
(declare-fun a__131 () Int)
(declare-fun a__153 () Int)
(declare-fun a__166 () Int)
(declare-fun b__263 () Int)
(declare-fun b__264 () Int)
(declare-fun b__265 () Int)
(declare-fun a__245 () Int)
(declare-fun a__3 () Int)
(declare-fun a__6 () Int)
(declare-fun a__8 () Int)
(declare-fun a__15 () Int)
(declare-fun a__12 () Int)
(declare-fun a__9 () Int)
(declare-fun a__13 () Int)
(declare-fun a__18 () Int)
(declare-fun a__19 () Int)
(declare-fun a__22 () Int)
(declare-fun a__23 () Int)
(declare-fun a__26 () Int)
(declare-fun a__27 () Int)
(declare-fun a__32 () Int)
(declare-fun a__30 () Int)
(declare-fun a__35 () Int)
(declare-fun a__36 () Int)
(declare-fun a__39 () Int)
(declare-fun a__40 () Int)
(declare-fun a__43 () Int)
(declare-fun a__44 () Int)
(declare-fun a__47 () Int)
(declare-fun a__48 () Int)
(declare-fun a__53 () Int)
(declare-fun a__51 () Int)
(declare-fun a__55 () Int)
(declare-fun a__58 () Int)
(declare-fun a__61 () Int)
(declare-fun a__62 () Int)
(declare-fun a__65 () Int)
(declare-fun a__66 () Int)
(declare-fun a__69 () Int)
(declare-fun a__70 () Int)
(declare-fun a__73 () Int)
(declare-fun a__74 () Int)
(declare-fun a__77 () Int)
(declare-fun a__14 () Int)
(declare-fun a__78 () Int)
(declare-fun a__4 () Int)
(declare-fun a__79 () Int)
(declare-fun a__80 () Int)
(declare-fun a__81 () Int)
(declare-fun a__82 () Int)
(declare-fun a__83 () Int)
(declare-fun a__7 () Int)
(declare-fun a__84 () Int)
(declare-fun a__85 () Int)
(declare-fun a__86 () Int)
(declare-fun a__87 () Int)
(declare-fun a__88 () Int)
(declare-fun a__31 () Int)
(declare-fun a__89 () Int)
(declare-fun a__91 () Int)
(declare-fun a__92 () Int)
(declare-fun a__94 () Int)
(declare-fun a__95 () Int)
(declare-fun a__96 () Int)
(declare-fun a__97 () Int)
(declare-fun a__52 () Int)
(declare-fun a__98 () Int)
(declare-fun a__100 () Int)
(declare-fun a__101 () Int)
(declare-fun a__103 () Int)
(declare-fun a__104 () Int)
(declare-fun a__105 () Int)
(declare-fun a__107 () Int)
(declare-fun a__108 () Int)
(declare-fun a__109 () Int)
(declare-fun a__110 () Int)
(declare-fun a__111 () Int)
(declare-fun a__113 () Int)
(declare-fun a__114 () Int)
(declare-fun a__115 () Int)
(declare-fun a__117 () Int)
(declare-fun a__118 () Int)
(declare-fun a__120 () Int)
(declare-fun a__121 () Int)
(declare-fun a__122 () Int)
(declare-fun a__124 () Int)
(declare-fun a__125 () Int)
(declare-fun a__126 () Int)
(declare-fun a__128 () Int)
(declare-fun a__129 () Int)
(declare-fun a__130 () Int)
(declare-fun a__132 () Int)
(declare-fun a__134 () Int)
(declare-fun a__135 () Int)
(declare-fun a__136 () Int)
(declare-fun a__138 () Int)
(declare-fun a__139 () Int)
(declare-fun a__140 () Int)
(declare-fun a__142 () Int)
(declare-fun a__143 () Int)
(declare-fun a__144 () Int)
(declare-fun a__146 () Int)
(declare-fun a__147 () Int)
(declare-fun a__148 () Int)
(declare-fun a__150 () Int)
(declare-fun a__151 () Int)
(declare-fun a__152 () Int)
(declare-fun a__154 () Int)
(declare-fun a__155 () Int)
(declare-fun a__156 () Int)
(declare-fun a__157 () Int)
(declare-fun a__158 () Int)
(declare-fun a__159 () Int)
(declare-fun a__160 () Int)
(declare-fun a__161 () Int)
(declare-fun a__162 () Int)
(declare-fun a__163 () Int)
(declare-fun a__164 () Int)
(declare-fun a__165 () Int)
(declare-fun a__167 () Int)
(declare-fun a__168 () Int)
(declare-fun a__169 () Int)
(declare-fun a__170 () Int)
(declare-fun a__171 () Int)
(declare-fun a__172 () Int)
(declare-fun a__173 () Int)
(declare-fun a__174 () Int)
(declare-fun a__175 () Int)
(declare-fun a__176 () Int)
(declare-fun a__177 () Int)
(declare-fun a__178 () Int)
(declare-fun a__179 () Int)
(declare-fun a__180 () Int)
(declare-fun a__181 () Int)
(declare-fun a__182 () Int)
(declare-fun a__183 () Int)
(declare-fun a__184 () Int)
(declare-fun a__185 () Int)
(declare-fun a__186 () Int)
(declare-fun a__187 () Int)
(declare-fun a__188 () Int)
(declare-fun a__189 () Int)
(declare-fun a__190 () Int)
(declare-fun a__191 () Int)
(declare-fun a__192 () Int)
(declare-fun a__193 () Int)
(declare-fun a__194 () Int)
(declare-fun a__195 () Int)
(declare-fun a__196 () Int)
(declare-fun a__197 () Int)
(declare-fun a__198 () Int)
(declare-fun a__199 () Int)
(declare-fun a__200 () Int)
(declare-fun a__201 () Int)
(declare-fun a__202 () Int)
(declare-fun a__203 () Int)
(declare-fun a__204 () Int)
(declare-fun a__205 () Int)
(declare-fun a__206 () Int)
(declare-fun a__207 () Int)
(declare-fun a__208 () Int)
(declare-fun a__209 () Int)
(declare-fun a__210 () Int)
(declare-fun a__211 () Int)
(declare-fun a__212 () Int)
(declare-fun a__213 () Int)
(declare-fun a__214 () Int)
(declare-fun a__215 () Int)
(declare-fun a__216 () Int)
(declare-fun a__217 () Int)
(declare-fun a__218 () Int)
(declare-fun a__219 () Int)
(declare-fun a__220 () Int)
(declare-fun a__221 () Int)
(declare-fun a__222 () Int)
(declare-fun a__223 () Int)
(declare-fun a__224 () Int)
(declare-fun a__225 () Int)
(declare-fun a__226 () Int)
(declare-fun a__227 () Int)
(declare-fun a__228 () Int)
(declare-fun a__229 () Int)
(declare-fun a__230 () Int)
(declare-fun a__231 () Int)
(declare-fun a__232 () Int)
(declare-fun a__233 () Int)
(declare-fun a__234 () Int)
(declare-fun a__235 () Int)
(declare-fun a__236 () Int)
(declare-fun a__237 () Int)
(declare-fun a__238 () Int)
(declare-fun a__240 () Int)
(declare-fun a__241 () Int)
(declare-fun a__242 () Int)
(declare-fun a__243 () Int)
(declare-fun a__244 () Int)
(declare-fun a__246 () Int)
(declare-fun a__247 () Int)
(declare-fun a__248 () Int)
(declare-fun a__249 () Int)
(declare-fun a__250 () Int)
(declare-fun a__251 () Int)
(declare-fun a__252 () Int)
(declare-fun a__253 () Int)
(declare-fun a__254 () Int)
(declare-fun a__255 () Int)
(declare-fun a__256 () Int)
(declare-fun a__257 () Int)
(declare-fun a__258 () Int)
(declare-fun a__259 () Int)
(declare-fun a__260 () Int)
(declare-fun a__261 () Int)
(declare-fun a__1 () Int)
(declare-fun a__5 () Int)
(declare-fun a__10 () Int)
(declare-fun a__16 () Int)
(declare-fun a__20 () Int)
(declare-fun a__24 () Int)
(declare-fun a__28 () Int)
(declare-fun a__33 () Int)
(declare-fun a__37 () Int)
(declare-fun a__41 () Int)
(declare-fun a__45 () Int)
(declare-fun a__49 () Int)
(declare-fun a__54 () Int)
(declare-fun a__56 () Int)
(declare-fun a__59 () Int)
(declare-fun a__63 () Int)
(declare-fun a__67 () Int)
(declare-fun a__71 () Int)
(declare-fun a__75 () Int)
(assert (and (>= (+ 1 (* (- 0 1) b__262)) 0) (= (+ (* b__262 a__57) (* (- 0 1) a__57)) 0) (= (+ (* b__262 a__2) (* (- 0 1) a__2)) 0) (= (+ (* b__262 a__60) (* (- 0 1) a__60)) 0) (= (+ (* b__262 a__64) (* (- 0 1) a__64)) 0) (= (+ (* b__262 a__68) (* (- 0 1) a__68)) 0) (= (+ (* b__262 a__72) (* (- 0 1) a__72)) 0) (= (+ (* b__262 a__11) (* (- 0 1) a__11)) 0) (= (+ (* b__262 a__17) (* (- 0 1) a__17)) 0) (= (+ (* b__262 a__21) (* (- 0 1) a__21)) 0) (= (+ (* b__262 a__25) (* (- 0 1) a__25)) 0) (= (+ (* b__262 a__34) (* (- 0 1) a__34)) 0) (= (+ (* b__262 a__38) (* (- 0 1) a__38)) 0) (= (+ (* b__262 a__42) (* (- 0 1) a__42)) 0) (= (+ (* b__262 a__46) (* (- 0 1) a__46)) 0) (= (+ (* b__262 a__76 a__90) (* (- 0 1) (* a__76 a__90))) 0) (= (+ (* b__262 a__76 a__116) (* (- 0 1) (* a__76 a__116))) 0) (= (+ (* b__262 a__76 a__93) (* (- 0 1) (* a__76 a__93))) 0) (= (+ (* b__262 a__76 a__119) (* (- 0 1) (* a__76 a__119))) 0) (= (+ (* b__262 a__76 a__133) (* (- 0 1) (* a__76 a__133))) 0) (= (+ (* b__262 a__76 a__145) (* (- 0 1) (* a__76 a__145))) 0) (= (+ (* b__262 a__29 a__90) (* (- 0 1) (* a__29 a__90))) 0) (= (+ (* b__262 a__29 a__116) (* (- 0 1) (* a__29 a__116))) 0) (= (+ (* b__262 a__29 a__93) (* (- 0 1) (* a__29 a__93))) 0) (= (+ (* b__262 a__29 a__119) (* (- 0 1) (* a__29 a__119))) 0) (= (+ (* b__262 a__29 a__133) (* (- 0 1) (* a__29 a__133))) 0) (= (+ (* b__262 a__29 a__145) (* (- 0 1) (* a__29 a__145))) 0) (= (+ (* b__262 a__50 a__99) (* (- 0 1) (* a__50 a__99))) 0) (= (+ (* b__262 a__50 a__239) (* (- 0 1) (* a__50 a__239))) 0) (= (+ (* b__262 a__50 a__102) (* (- 0 1) (* a__50 a__102))) 0) (= (+ (* b__262 a__50 a__112) (* (- 0 1) (* a__50 a__112))) 0) (= (+ (* b__262 a__50 a__127) (* (- 0 1) (* a__50 a__127))) 0) (= (+ (* b__262 a__50 a__141) (* (- 0 1) (* a__50 a__141))) 0) (= (+ (* b__262 a__50 a__106) (* (- 0 1) (* a__50 a__106))) 0) (= (+ (* b__262 a__50 a__123) (* (- 0 1) (* a__50 a__123))) 0) (= (+ (* b__262 a__50 a__137) (* (- 0 1) (* a__50 a__137))) 0) (= (+ (* b__262 a__50 a__149) (* (- 0 1) (* a__50 a__149))) 0) (= (+ (* b__262 a__76 a__131 a__99) (* (- 0 1) (* a__76 a__131 a__99))) 0) (= (+ (* b__262 a__76 a__131 a__239) (* (- 0 1) (* a__76 a__131 a__239))) 0) (= (+ (* b__262 a__76 a__131 a__102) (* (- 0 1) (* a__76 a__131 a__102))) 0) (= (+ (* b__262 a__76 a__131 a__112) (* (- 0 1) (* a__76 a__131 a__112))) 0) (= (+ (* b__262 a__76 a__131 a__127) (* (- 0 1) (* a__76 a__131 a__127))) 0) (= (+ (* b__262 a__76 a__131 a__141) (* (- 0 1) (* a__76 a__131 a__141))) 0) (= (+ (* b__262 a__76 a__131 a__106) (* (- 0 1) (* a__76 a__131 a__106))) 0) (= (+ (* b__262 a__76 a__131 a__123) (* (- 0 1) (* a__76 a__131 a__123))) 0) (= (+ (* b__262 a__76 a__131 a__137) (* (- 0 1) (* a__76 a__131 a__137))) 0) (= (+ (* b__262 a__76 a__131 a__149) (* (- 0 1) (* a__76 a__131 a__149))) 0) (= (+ (* b__262 a__29 a__131 a__99) (* (- 0 1) (* a__29 a__131 a__99))) 0) (= (+ (* b__262 a__29 a__131 a__239) (* (- 0 1) (* a__29 a__131 a__239))) 0) (= (+ (* b__262 a__29 a__131 a__102) (* (- 0 1) (* a__29 a__131 a__102))) 0) (= (+ (* b__262 a__29 a__131 a__112) (* (- 0 1) (* a__29 a__131 a__112))) 0) (= (+ (* b__262 a__29 a__131 a__127) (* (- 0 1) (* a__29 a__131 a__127))) 0) (= (+ (* b__262 a__29 a__131 a__141) (* (- 0 1) (* a__29 a__131 a__141))) 0) (= (+ (* b__262 a__29 a__131 a__106) (* (- 0 1) (* a__29 a__131 a__106))) 0) (= (+ (* b__262 a__29 a__131 a__123) (* (- 0 1) (* a__29 a__131 a__123))) 0) (= (+ (* b__262 a__29 a__131 a__137) (* (- 0 1) (* a__29 a__131 a__137))) 0) (= (+ (* b__262 a__29 a__131 a__149) (* (- 0 1) (* a__29 a__131 a__149))) 0) (= (+ (* b__262 a__50 a__90 a__153) (* (- 0 1) (* a__50 a__90 a__153))) 0) (= (+ (* b__262 a__50 a__90 a__166) (* (- 0 1) (* a__50 a__90 a__166))) 0) (= (+ (* b__262 a__50 a__116 a__153) (* (- 0 1) (* a__50 a__116 a__153))) 0) (= (+ (* b__262 a__50 a__116 a__166) (* (- 0 1) (* a__50 a__116 a__166))) 0) (= (+ (* b__262 a__50 a__93 a__153) (* (- 0 1) (* a__50 a__93 a__153))) 0) (= (+ (* b__262 a__50 a__93 a__166) (* (- 0 1) (* a__50 a__93 a__166))) 0) (= (+ (* b__262 a__50 a__119 a__153) (* (- 0 1) (* a__50 a__119 a__153))) 0) (= (+ (* b__262 a__50 a__119 a__166) (* (- 0 1) (* a__50 a__119 a__166))) 0) (= (+ (* b__262 a__50 a__133 a__153) (* (- 0 1) (* a__50 a__133 a__153))) 0) (= (+ (* b__262 a__50 a__133 a__166) (* (- 0 1) (* a__50 a__133 a__166))) 0) (= (+ (* b__262 a__50 a__145 a__153) (* (- 0 1) (* a__50 a__145 a__153))) 0) (= (+ (* b__262 a__50 a__145 a__166) (* (- 0 1) (* a__50 a__145 a__166))) 0) (>= (+ 1 (* (- 0 1) b__263)) 0) (= (+ (* b__263 a__76) (* (- 0 1) a__76)) 0) (= (+ (* b__263 a__29) (* (- 0 1) a__29)) 0) (= (+ (* b__263 a__50 a__153) (* (- 0 1) (* a__50 a__153))) 0) (= (+ (* b__263 a__50 a__166) (* (- 0 1) (* a__50 a__166))) 0) (>= (+ 1 (* (- 0 1) b__264)) 0) (= (+ (* b__264 a__50) (* (- 0 1) a__50)) 0) (= (+ (* b__264 a__76 a__131) (* (- 0 1) (* a__76 a__131))) 0) (= (+ (* b__264 a__29 a__131) (* (- 0 1) (* a__29 a__131))) 0) (>= (+ 1 (* (- 0 1) b__265)) 0) (= (+ (* b__265 a__50 a__245) (* (- 0 1) (* a__50 a__245))) 0) (= (+ (* b__265 a__76 a__131 a__245) (* (- 0 1) (* a__76 a__131 a__245))) 0) (= (+ (* b__265 a__29 a__131 a__245) (* (- 0 1) (* a__29 a__131 a__245))) 0) (>= (+ a__3 (* (- 0 1) a__6)) 0) (>= (+ (* a__8 a__6) (* (- 0 1) (* a__15 a__11)) (* (- 0 1) a__12)) 0) (>= (+ (* a__9 a__6) (* (- 0 1) a__13)) 0) (>= (+ a__12 (* (- 0 1) (* a__15 a__17)) (* (- 0 1) a__18)) 0) (>= (+ a__13 (* (- 0 1) a__19)) 0) (>= (+ a__18 (* (- 0 1) a__22)) 0) (>= (+ a__19 (* (- 0 1) (* a__15 a__21)) (* (- 0 1) a__23)) 0) (>= (+ a__22 (* (- 0 1) a__26)) 0) (>= (+ a__23 (* (- 0 1) (* a__15 a__25)) (* (- 0 1) a__27)) 0) (>= (+ a__26 (* (- 0 1) (* a__32 a__29))) 0) (>= (+ a__27 (* (- 0 1) a__30)) 0) (>= (+ a__30 (* (- 0 1) a__6)) 0) (>= (+ (* a__8 a__6) (* (- 0 1) (* a__15 a__34)) (* (- 0 1) a__35)) 0) (>= (+ (* a__9 a__6) (* (- 0 1) a__36)) 0) (>= (+ a__35 (* (- 0 1) (* a__15 a__38)) (* (- 0 1) a__39)) 0) (>= (+ a__36 (* (- 0 1) a__40)) 0) (>= (+ a__39 (* (- 0 1) a__43)) 0) (>= (+ a__40 (* (- 0 1) (* a__15 a__42)) (* (- 0 1) a__44)) 0) (>= (+ a__43 (* (- 0 1) a__47)) 0) (>= (+ a__44 (* (- 0 1) (* a__15 a__46)) (* (- 0 1) a__48)) 0) (>= (+ a__47 (* (- 0 1) (* a__53 a__50))) 0) (>= (+ a__48 (* (- 0 1) a__51)) 0) (>= (+ a__51 (* (- 0 1) a__55)) 0) (>= (+ a__55 (* (- 0 1) (* a__15 a__57)) (* (- 0 1) a__58)) 0) (>= (+ a__58 (* (- 0 1) (* a__15 a__2)) (* (- 0 1) a__3)) 0) (>= (+ (* a__8 a__55) (* (- 0 1) (* a__15 a__60)) (* (- 0 1) a__61)) 0) (>= (+ (* a__9 a__55) (* (- 0 1) a__62)) 0) (>= (+ a__61 (* (- 0 1) (* a__15 a__64)) (* (- 0 1) a__65)) 0) (>= (+ a__62 (* (- 0 1) a__66)) 0) (>= (+ a__65 (* (- 0 1) a__69)) 0) (>= (+ a__66 (* (- 0 1) (* a__15 a__68)) (* (- 0 1) a__70)) 0) (>= (+ a__69 (* (- 0 1) a__73)) 0) (>= (+ a__70 (* (- 0 1) (* a__15 a__72)) (* (- 0 1) a__74)) 0) (>= (+ a__73 (* (- 0 1) (* a__32 a__76))) 0) (>= (+ a__74 (* (- 0 1) a__77)) 0) (>= (+ a__77 (* (- 0 1) a__55)) 0) (>= (+ a__73 (* (- 0 1) a__55)) 0) (>= (+ a__47 (* (- 0 1) a__6)) 0) (>= (+ a__26 (* (- 0 1) a__55)) 0) (>= (+ (* b__262 a__14) (* b__262 a__78 a__15) (* (- 0 1) (* b__262 a__4))) 0) (>= (+ (* b__262 a__14) (* b__262 a__79 a__15) (* (- 0 1) (* b__262 a__4))) 0) (>= (+ (* b__262 a__14) (* b__262 a__80 a__15) (* (- 0 1) (* b__262 a__4))) 0) (>= (+ (* b__262 a__14) (* b__262 a__81 a__15) (* (- 0 1) (* b__262 a__4))) 0) (>= (+ (* b__262 a__14) (* b__262 a__82 a__15) (* (- 0 1) (* b__262 a__4))) 0) (>= (+ (* b__262 a__14) (* b__262 a__83 a__15) (* (- 0 1) (* b__262 a__4))) 0) (>= (+ (* b__262 a__14) (* b__262 a__7 a__15) (* (- 0 1) (* b__262 a__84)) (* (- 0 1) (* b__262 a__14 a__85))) 0) (>= (+ (* b__262 a__8 a__15) (* (- 0 1) (* b__262 a__15 a__85))) 0) (>= (+ (* b__262 a__9 a__15) (* (- 0 1) (* b__262 a__86))) 0) (>= (+ (* b__262 a__14) (* (- 0 1) (* b__262 a__87))) 0) (>= (+ (* b__262 a__15) (* (- 0 1) (* b__262 a__88))) 0) (>= (+ (* b__263 a__31) (* (- 0 1) (* b__263 a__89)) (* (- 0 1) (* b__263 a__14 a__90))) 0) (>= (+ (* b__263 a__32) (* (- 0 1) (* b__263 a__15 a__90)) (* (- 0 1) (* b__263 a__91))) 0) (>= (+ (* b__263 a__31) (* b__263 a__81 a__32) (* (- 0 1) (* b__263 a__4))) 0) (>= (+ (* b__263 a__31) (* b__263 a__7 a__32) (* (- 0 1) (* b__263 a__92)) (* (- 0 1) (* b__263 a__14 a__93))) 0) (>= (+ (* b__263 a__8 a__32) (* (- 0 1) (* b__263 a__15 a__93)) (* (- 0 1) (* b__263 a__94))) 0) (>= (+ (* b__263 a__9 a__32) (* (- 0 1) (* b__263 a__95))) 0) (>= (+ (* b__263 a__31) (* (- 0 1) (* b__263 a__96))) 0) (>= (+ (* b__263 a__32) (* (- 0 1) (* b__263 a__97))) 0) (>= (+ (* b__264 a__52) (* (- 0 1) (* b__264 a__98)) (* (- 0 1) (* b__264 a__14 a__99))) 0) (>= (+ (* b__264 a__53) (* (- 0 1) (* b__264 a__15 a__99)) (* (- 0 1) (* b__264 a__100))) 0) (>= (+ (* b__264 a__52) (* b__264 a__7 a__53) (* (- 0 1) (* b__264 a__101)) (* (- 0 1) (* b__264 a__14 a__102))) 0) (>= (+ (* b__264 a__8 a__53) (* (- 0 1) (* b__264 a__15 a__102)) (* (- 0 1) (* b__264 a__103))) 0) (>= (+ (* b__264 a__9 a__53) (* (- 0 1) (* b__264 a__104))) 0) (>= (+ (* b__264 a__52) (* b__264 a__7 a__53) (* (- 0 1) (* b__264 a__105)) (* (- 0 1) (* b__264 a__14 a__106))) 0) (>= (+ (* b__264 a__8 a__53) (* (- 0 1) (* b__264 a__15 a__106)) (* (- 0 1) (* b__264 a__107))) 0) (>= (+ (* b__264 a__9 a__53) (* (- 0 1) (* b__264 a__108))) 0) (>= (+ (* b__264 a__52) (* (- 0 1) (* b__264 a__109))) 0) (>= (+ (* b__264 a__53) (* (- 0 1) (* b__264 a__110))) 0) (>= (+ (* b__264 a__101) (* b__264 a__4 a__102) (* (- 0 1) (* b__264 a__111)) (* (- 0 1) (* b__264 a__14 a__112))) 0) (>= (+ (* b__264 a__103) (* (- 0 1) (* b__264 a__15 a__112)) (* (- 0 1) (* b__264 a__113))) 0) (>= (+ (* b__264 a__104) (* (- 0 1) (* b__264 a__114))) 0) (>= (+ (* b__263 a__89) (* b__263 a__4 a__90) (* (- 0 1) (* b__263 a__115)) (* (- 0 1) (* b__263 a__14 a__116))) 0) (>= (+ (* b__263 a__91) (* (- 0 1) (* b__263 a__15 a__116)) (* (- 0 1) (* b__263 a__117))) 0) (>= (+ (* b__263 a__92) (* b__263 a__4 a__93) (* (- 0 1) (* b__263 a__118)) (* (- 0 1) (* b__263 a__14 a__119))) 0) (>= (+ (* b__263 a__94) (* (- 0 1) (* b__263 a__15 a__119)) (* (- 0 1) (* b__263 a__120))) 0) (>= (+ (* b__263 a__95) (* (- 0 1) (* b__263 a__121))) 0) (>= (+ (* b__264 a__105) (* b__264 a__4 a__106) (* (- 0 1) (* b__264 a__122)) (* (- 0 1) (* b__264 a__14 a__123))) 0) (>= (+ (* b__264 a__107) (* (- 0 1) (* b__264 a__15 a__123)) (* (- 0 1) (* b__264 a__124))) 0) (>= (+ (* b__264 a__108) (* (- 0 1) (* b__264 a__125))) 0) (>= (+ (* b__264 a__111) (* b__264 a__4 a__112) (* (- 0 1) (* b__264 a__126)) (* (- 0 1) (* b__264 a__14 a__127))) 0) (>= (+ (* b__264 a__113) (* (- 0 1) (* b__264 a__128))) 0) (>= (+ (* b__264 a__114) (* (- 0 1) (* b__264 a__15 a__127)) (* (- 0 1) (* b__264 a__129))) 0) (>= (+ (* b__263 a__115) (* b__263 a__4 a__116) (* (- 0 1) (* b__263 a__130)) (* (- 0 1) (* b__263 a__52 a__131))) 0) (>= (+ (* b__263 a__117) (* (- 0 1) (* b__263 a__53 a__131))) 0) (>= (+ (* b__263 a__118) (* b__263 a__4 a__119) (* (- 0 1) (* b__263 a__132)) (* (- 0 1) (* b__263 a__14 a__133))) 0) (>= (+ (* b__263 a__120) (* (- 0 1) (* b__263 a__134))) 0) (>= (+ (* b__263 a__121) (* (- 0 1) (* b__263 a__15 a__133)) (* (- 0 1) (* b__263 a__135))) 0) (>= (+ (* b__264 a__122) (* b__264 a__4 a__123) (* (- 0 1) (* b__264 a__136)) (* (- 0 1) (* b__264 a__14 a__137))) 0) (>= (+ (* b__264 a__124) (* (- 0 1) (* b__264 a__138))) 0) (>= (+ (* b__264 a__125) (* (- 0 1) (* b__264 a__15 a__137)) (* (- 0 1) (* b__264 a__139))) 0) (>= (+ (* b__264 a__126) (* b__264 a__4 a__127) (* (- 0 1) (* b__264 a__140)) (* (- 0 1) (* b__264 a__14 a__141))) 0) (>= (+ (* b__264 a__128) (* (- 0 1) (* b__264 a__142))) 0) (>= (+ (* b__264 a__129) (* (- 0 1) (* b__264 a__15 a__141)) (* (- 0 1) (* b__264 a__143))) 0) (>= (+ (* b__263 a__132) (* b__263 a__4 a__133) (* (- 0 1) (* b__263 a__144)) (* (- 0 1) (* b__263 a__14 a__145))) 0) (>= (+ (* b__263 a__134) (* (- 0 1) (* b__263 a__146))) 0) (>= (+ (* b__263 a__135) (* (- 0 1) (* b__263 a__15 a__145)) (* (- 0 1) (* b__263 a__147))) 0) (>= (+ (* b__264 a__136) (* b__264 a__4 a__137) (* (- 0 1) (* b__264 a__148)) (* (- 0 1) (* b__264 a__14 a__149))) 0) (>= (+ (* b__264 a__138) (* (- 0 1) (* b__264 a__150))) 0) (>= (+ (* b__264 a__139) (* (- 0 1) (* b__264 a__15 a__149)) (* (- 0 1) (* b__264 a__151))) 0) (>= (+ (* b__264 a__140) (* b__264 a__4 a__141) (* (- 0 1) (* b__264 a__152)) (* (- 0 1) (* b__264 a__31 a__153))) 0) (>= (+ (* b__264 a__142) (* (- 0 1) (* b__264 a__32 a__153))) 0) (>= (+ (* b__264 a__143) (* (- 0 1) (* b__264 a__154))) 0) (>= (+ (* b__263 a__144) (* b__263 a__4 a__145) (* (- 0 1) (* b__263 a__155)) (* (- 0 1) (* b__263 a__31 a__156))) 0) (>= (+ (* b__263 a__146) (* (- 0 1) (* b__263 a__32 a__156))) 0) (>= (+ (* b__263 a__147) (* (- 0 1) (* b__263 a__157))) 0) (>= (+ (* b__264 a__148) (* b__264 a__4 a__149) (* (- 0 1) (* b__264 a__158)) (* (- 0 1) (* b__264 a__52 a__159))) 0) (>= (+ (* b__264 a__150) (* (- 0 1) (* b__264 a__53 a__159))) 0) (>= (+ (* b__264 a__151) (* (- 0 1) (* b__264 a__160))) 0) (>= (+ (* b__264 a__152) (* b__264 a__4 a__153) (* (- 0 1) (* b__264 a__161)) (* (- 0 1) (* b__264 a__52 a__162))) 0) (>= (+ (* b__264 a__154) (* (- 0 1) (* b__264 a__53 a__162))) 0) (>= (+ (* b__263 a__155) (* b__263 a__4 a__156) (* (- 0 1) (* b__263 a__163)) (* (- 0 1) (* b__263 a__31 a__164))) 0) (>= (+ (* b__263 a__157) (* (- 0 1) (* b__263 a__32 a__164))) 0) (>= (+ (* b__264 a__158) (* b__264 a__4 a__159) (* (- 0 1) (* b__264 a__165)) (* (- 0 1) (* b__264 a__31 a__166))) 0) (>= (+ (* b__264 a__160) (* (- 0 1) (* b__264 a__32 a__166))) 0) (>= (+ (* b__263 a__130) (* b__263 a__4 a__131) (* (- 0 1) (* b__263 a__4))) 0) (>= (+ (* b__263 a__130) (* (- 0 1) (* b__263 a__167))) 0) (>= (+ (* b__263 a__131) (* (- 0 1) (* b__263 a__168))) 0) (>= (+ (* b__264 a__101) (* (- 0 1) (* b__264 a__169))) 0) (>= (+ (* b__264 a__102) (* (- 0 1) (* b__264 a__170))) 0) (>= (+ (* b__264 a__103) (* (- 0 1) (* b__264 a__171))) 0) (>= (+ (* b__264 a__104) (* (- 0 1) (* b__264 a__172))) 0) (>= (+ (* b__264 a__111) (* (- 0 1) (* b__264 a__173))) 0) (>= (+ (* b__264 a__112) (* (- 0 1) (* b__264 a__174))) 0) (>= (+ (* b__264 a__113) (* (- 0 1) (* b__264 a__175))) 0) (>= (+ (* b__264 a__114) (* (- 0 1) (* b__264 a__176))) 0) (>= (+ (* b__264 a__126) (* (- 0 1) (* b__264 a__177))) 0) (>= (+ (* b__264 a__127) (* (- 0 1) (* b__264 a__178))) 0) (>= (+ (* b__264 a__128) (* (- 0 1) (* b__264 a__179))) 0) (>= (+ (* b__264 a__129) (* (- 0 1) (* b__264 a__180))) 0) (>= (+ (* b__264 a__140) (* (- 0 1) (* b__264 a__181))) 0) (>= (+ (* b__264 a__141) (* (- 0 1) (* b__264 a__182))) 0) (>= (+ (* b__264 a__142) (* (- 0 1) (* b__264 a__183))) 0) (>= (+ (* b__264 a__143) (* (- 0 1) (* b__264 a__184))) 0) (>= (+ (* b__264 a__152) (* (- 0 1) (* b__264 a__185))) 0) (>= (+ (* b__264 a__153) (* (- 0 1) (* b__264 a__186))) 0) (>= (+ (* b__264 a__154) (* (- 0 1) (* b__264 a__187))) 0) (>= (+ (* b__263 a__89) (* (- 0 1) (* b__263 a__188))) 0) (>= (+ (* b__263 a__90) (* (- 0 1) (* b__263 a__189))) 0) (>= (+ (* b__263 a__91) (* (- 0 1) (* b__263 a__190))) 0) (>= (+ (* b__263 a__115) (* (- 0 1) (* b__263 a__191))) 0) (>= (+ (* b__263 a__116) (* (- 0 1) (* b__263 a__192))) 0) (>= (+ (* b__263 a__117) (* (- 0 1) (* b__263 a__193))) 0) (>= (+ (* b__263 a__92) (* (- 0 1) (* b__263 a__194))) 0) (>= (+ (* b__263 a__93) (* (- 0 1) (* b__263 a__195))) 0) (>= (+ (* b__263 a__94) (* (- 0 1) (* b__263 a__196))) 0) (>= (+ (* b__263 a__95) (* (- 0 1) (* b__263 a__197))) 0) (>= (+ (* b__263 a__118) (* (- 0 1) (* b__263 a__198))) 0) (>= (+ (* b__263 a__119) (* (- 0 1) (* b__263 a__199))) 0) (>= (+ (* b__263 a__120) (* (- 0 1) (* b__263 a__200))) 0) (>= (+ (* b__263 a__121) (* (- 0 1) (* b__263 a__201))) 0) (>= (+ (* b__263 a__132) (* (- 0 1) (* b__263 a__202))) 0) (>= (+ (* b__263 a__133) (* (- 0 1) (* b__263 a__203))) 0) (>= (+ (* b__263 a__134) (* (- 0 1) (* b__263 a__204))) 0) (>= (+ (* b__263 a__135) (* (- 0 1) (* b__263 a__205))) 0) (>= (+ (* b__263 a__144) (* (- 0 1) (* b__263 a__206))) 0) (>= (+ (* b__263 a__145) (* (- 0 1) (* b__263 a__207))) 0) (>= (+ (* b__263 a__146) (* (- 0 1) (* b__263 a__208))) 0) (>= (+ (* b__263 a__147) (* (- 0 1) (* b__263 a__209))) 0) (>= (+ (* b__263 a__155) (* (- 0 1) (* b__263 a__210))) 0) (>= (+ (* b__263 a__156) (* (- 0 1) (* b__263 a__211))) 0) (>= (+ (* b__263 a__157) (* (- 0 1) (* b__263 a__212))) 0) (>= (+ (* b__263 a__163) (* b__263 a__4 a__164) (* (- 0 1) (* b__263 a__4))) 0) (>= (+ (* b__263 a__163) (* (- 0 1) (* b__263 a__213))) 0) (>= (+ (* b__263 a__164) (* (- 0 1) (* b__263 a__214))) 0) (>= (+ (* b__264 a__161) (* b__264 a__4 a__162) (* (- 0 1) (* b__264 a__4))) 0) (>= (+ (* b__264 a__161) (* (- 0 1) (* b__264 a__215))) 0) (>= (+ (* b__264 a__162) (* (- 0 1) (* b__264 a__216))) 0) (>= (+ (* b__264 a__105) (* (- 0 1) (* b__264 a__217))) 0) (>= (+ (* b__264 a__106) (* (- 0 1) (* b__264 a__218))) 0) (>= (+ (* b__264 a__107) (* (- 0 1) (* b__264 a__219))) 0) (>= (+ (* b__264 a__108) (* (- 0 1) (* b__264 a__220))) 0) (>= (+ (* b__264 a__122) (* (- 0 1) (* b__264 a__221))) 0) (>= (+ (* b__264 a__123) (* (- 0 1) (* b__264 a__222))) 0) (>= (+ (* b__264 a__124) (* (- 0 1) (* b__264 a__223))) 0) (>= (+ (* b__264 a__125) (* (- 0 1) (* b__264 a__224))) 0) (>= (+ (* b__264 a__136) (* (- 0 1) (* b__264 a__225))) 0) (>= (+ (* b__264 a__137) (* (- 0 1) (* b__264 a__226))) 0) (>= (+ (* b__264 a__138) (* (- 0 1) (* b__264 a__227))) 0) (>= (+ (* b__264 a__139) (* (- 0 1) (* b__264 a__228))) 0) (>= (+ (* b__264 a__148) (* (- 0 1) (* b__264 a__229))) 0) (>= (+ (* b__264 a__149) (* (- 0 1) (* b__264 a__230))) 0) (>= (+ (* b__264 a__150) (* (- 0 1) (* b__264 a__231))) 0) (>= (+ (* b__264 a__151) (* (- 0 1) (* b__264 a__232))) 0) (>= (+ (* b__264 a__158) (* (- 0 1) (* b__264 a__233))) 0) (>= (+ (* b__264 a__159) (* (- 0 1) (* b__264 a__234))) 0) (>= (+ (* b__264 a__160) (* (- 0 1) (* b__264 a__235))) 0) (>= (+ (* b__264 a__165) (* b__264 a__4 a__166) (* (- 0 1) (* b__264 a__4))) 0) (>= (+ (* b__264 a__165) (* (- 0 1) (* b__264 a__236))) 0) (>= (+ (* b__264 a__166) (* (- 0 1) (* b__264 a__237))) 0) (>= (+ (* b__264 a__98) (* b__264 a__4 a__99) (* (- 0 1) (* b__264 a__238)) (* (- 0 1) (* b__264 a__14 a__239))) 0) (>= (+ (* b__264 a__100) (* (- 0 1) (* b__264 a__15 a__239)) (* (- 0 1) (* b__264 a__240))) 0) (>= (+ (* b__264 a__98) (* (- 0 1) (* b__264 a__241))) 0) (>= (+ (* b__264 a__99) (* (- 0 1) (* b__264 a__242))) 0) (>= (+ (* b__264 a__100) (* (- 0 1) (* b__264 a__243))) 0) (>= (+ (* b__264 a__238) (* b__264 a__4 a__239) (* (- 0 1) (* b__264 a__244)) (* (- 0 1) (* b__264 a__246 a__245))) 0) (>= (+ (* b__264 a__240) (* (- 0 1) (* b__264 a__247 a__245))) 0) (>= (+ (* b__264 a__238) (* (- 0 1) (* b__264 a__248))) 0) (>= (+ (* b__264 a__239) (* (- 0 1) (* b__264 a__249))) 0) (>= (+ (* b__264 a__240) (* (- 0 1) (* b__264 a__250))) 0) (>= (+ (* b__265 a__246) (* b__265 a__78 a__247) (* (- 0 1) (* b__265 a__4))) 0) (>= (+ (* b__265 a__246) (* b__265 a__79 a__247) (* (- 0 1) (* b__265 a__4))) 0) (>= (+ (* b__265 a__246) (* b__265 a__80 a__247) (* (- 0 1) (* b__265 a__4))) 0) (>= (+ (* b__265 a__246) (* b__265 a__82 a__247) (* (- 0 1) (* b__265 a__4))) 0) (>= (+ (* b__265 a__246) (* b__265 a__83 a__247) (* (- 0 1) (* b__265 a__4))) 0) (>= (+ (* b__265 a__246) (* (- 0 1) (* b__265 a__251))) 0) (>= (+ (* b__265 a__247) (* (- 0 1) (* b__265 a__252))) 0) (>= (+ (* b__264 a__244) (* b__264 a__4 a__245) (* (- 0 1) (* b__264 a__4))) 0) (>= (+ (* b__264 a__244) (* (- 0 1) (* b__264 a__253))) 0) (>= (+ (* b__264 a__245) (* (- 0 1) (* b__264 a__254))) 0) (>= (+ (* b__262 a__84) (* b__262 a__4 a__85) (* (- 0 1) (* b__262 a__255)) (* (- 0 1) (* b__262 a__14 a__256))) 0) (>= (+ (* b__262 a__86) (* (- 0 1) (* b__262 a__15 a__256))) 0) (>= (+ (* b__262 a__84) (* (- 0 1) (* b__262 a__257))) 0) (>= (+ (* b__262 a__85) (* (- 0 1) (* b__262 a__258))) 0) (>= (+ (* b__262 a__86) (* (- 0 1) (* b__262 a__259))) 0) (>= (+ (* b__262 a__255) (* b__262 a__4 a__256) (* (- 0 1) (* b__262 a__4))) 0) (>= (+ (* b__262 a__255) (* (- 0 1) (* b__262 a__260))) 0) (>= (+ (* b__262 a__256) (* (- 0 1) (* b__262 a__261))) 0) (>= (+ a__1 (* a__4 a__2) (* (- 0 1) a__5)) 0) (>= (+ a__5 (* a__7 a__6) (* (- 0 1) a__10) (* (- 0 1) (* a__14 a__11))) 0) (>= (+ a__10 (* a__4 a__11) (* (- 0 1) a__16) (* (- 0 1) (* a__14 a__17))) 0) (>= (+ a__16 (* a__4 a__17) (* (- 0 1) a__20) (* (- 0 1) (* a__14 a__21))) 0) (>= (+ a__20 (* a__4 a__21) (* (- 0 1) a__24) (* (- 0 1) (* a__14 a__25))) 0) (>= (+ a__24 (* a__4 a__25) (* (- 0 1) a__28) (* (- 0 1) (* a__31 a__29))) 0) (>= (+ a__28 (* a__4 a__29) (* (- 0 1) a__5)) 0) (>= (+ a__5 (* a__7 a__6) (* (- 0 1) a__33) (* (- 0 1) (* a__14 a__34))) 0) (>= (+ a__33 (* a__4 a__34) (* (- 0 1) a__37) (* (- 0 1) (* a__14 a__38))) 0) (>= (+ a__37 (* a__4 a__38) (* (- 0 1) a__41) (* (- 0 1) (* a__14 a__42))) 0) (>= (+ a__41 (* a__4 a__42) (* (- 0 1) a__45) (* (- 0 1) (* a__14 a__46))) 0) (>= (+ a__45 (* a__4 a__46) (* (- 0 1) a__49) (* (- 0 1) (* a__52 a__50))) 0) (>= (+ a__49 (* a__4 a__50) (* (- 0 1) a__54)) 0) (>= (+ a__54 (* (- 0 1) a__56) (* (- 0 1) (* a__14 a__57))) 0) (>= (+ a__56 (* a__4 a__57) (* (- 0 1) a__1) (* (- 0 1) (* a__14 a__2))) 0) (>= (+ a__54 (* a__7 a__55) (* (- 0 1) a__59) (* (- 0 1) (* a__14 a__60))) 0) (>= (+ a__59 (* a__4 a__60) (* (- 0 1) a__63) (* (- 0 1) (* a__14 a__64))) 0) (>= (+ a__63 (* a__4 a__64) (* (- 0 1) a__67) (* (- 0 1) (* a__14 a__68))) 0) (>= (+ a__67 (* a__4 a__68) (* (- 0 1) a__71) (* (- 0 1) (* a__14 a__72))) 0) (>= (+ a__71 (* a__4 a__72) (* (- 0 1) a__75) (* (- 0 1) (* a__31 a__76))) 0) (>= (+ a__75 (* a__4 a__76) (* (- 0 1) a__54)) 0) (>= (+ a__71 (* a__4 a__72) (* (- 0 1) a__54)) 0) (>= (+ a__45 (* a__4 a__46) (* (- 0 1) a__5)) 0) (>= (+ a__24 (* a__4 a__25) (* (- 0 1) a__54)) 0) (not (and (= (+ a__1 (* a__4 a__2) (* (- 0 1) a__5)) 0) (= (+ a__5 (* a__7 a__6) (* (- 0 1) a__10) (* (- 0 1) (* a__14 a__11))) 0) (= (+ a__10 (* a__4 a__11) (* (- 0 1) a__16) (* (- 0 1) (* a__14 a__17))) 0) (= (+ a__16 (* a__4 a__17) (* (- 0 1) a__20) (* (- 0 1) (* a__14 a__21))) 0) (= (+ a__20 (* a__4 a__21) (* (- 0 1) a__24) (* (- 0 1) (* a__14 a__25))) 0) (= (+ a__24 (* a__4 a__25) (* (- 0 1) a__28) (* (- 0 1) (* a__31 a__29))) 0) (= (+ a__28 (* a__4 a__29) (* (- 0 1) a__5)) 0) (= (+ a__5 (* a__7 a__6) (* (- 0 1) a__33) (* (- 0 1) (* a__14 a__34))) 0) (= (+ a__33 (* a__4 a__34) (* (- 0 1) a__37) (* (- 0 1) (* a__14 a__38))) 0) (= (+ a__37 (* a__4 a__38) (* (- 0 1) a__41) (* (- 0 1) (* a__14 a__42))) 0) (= (+ a__41 (* a__4 a__42) (* (- 0 1) a__45) (* (- 0 1) (* a__14 a__46))) 0) (= (+ a__45 (* a__4 a__46) (* (- 0 1) a__49) (* (- 0 1) (* a__52 a__50))) 0) (= (+ a__49 (* a__4 a__50) (* (- 0 1) a__54)) 0) (= (+ a__54 (* (- 0 1) a__56) (* (- 0 1) (* a__14 a__57))) 0) (= (+ a__56 (* a__4 a__57) (* (- 0 1) a__1) (* (- 0 1) (* a__14 a__2))) 0) (= (+ a__54 (* a__7 a__55) (* (- 0 1) a__59) (* (- 0 1) (* a__14 a__60))) 0) (= (+ a__59 (* a__4 a__60) (* (- 0 1) a__63) (* (- 0 1) (* a__14 a__64))) 0) (= (+ a__63 (* a__4 a__64) (* (- 0 1) a__67) (* (- 0 1) (* a__14 a__68))) 0) (= (+ a__67 (* a__4 a__68) (* (- 0 1) a__71) (* (- 0 1) (* a__14 a__72))) 0) (= (+ a__71 (* a__4 a__72) (* (- 0 1) a__75) (* (- 0 1) (* a__31 a__76))) 0) (= (+ a__75 (* a__4 a__76) (* (- 0 1) a__54)) 0) (= (+ a__71 (* a__4 a__72) (* (- 0 1) a__54)) 0) (= (+ a__45 (* a__4 a__46) (* (- 0 1) a__5)) 0) (= (+ a__24 (* a__4 a__25) (* (- 0 1) a__54)) 0))) (>= b__262 0) (>= 1 b__262) (>= a__57 0) (>= a__2 0) (>= a__60 0) (>= a__64 0) (>= a__68 0) (>= a__72 0) (>= a__11 0) (>= a__17 0) (>= a__21 0) (>= a__25 0) (>= a__34 0) (>= a__38 0) (>= a__42 0) (>= a__46 0) (>= a__76 0) (>= a__90 0) (>= a__116 0) (>= a__93 0) (>= a__119 0) (>= a__133 0) (>= a__145 0) (>= a__29 0) (>= a__50 0) (>= a__99 0) (>= a__239 0) (>= a__102 0) (>= a__112 0) (>= a__127 0) (>= a__141 0) (>= a__106 0) (>= a__123 0) (>= a__137 0) (>= a__149 0) (>= a__131 0) (>= a__153 0) (>= a__166 0) (>= b__263 0) (>= 1 b__263) (>= b__264 0) (>= 1 b__264) (>= b__265 0) (>= 1 b__265) (>= a__245 0) (>= a__3 0) (>= a__6 0) (>= a__8 0) (>= a__15 0) (>= a__12 0) (>= a__9 0) (>= a__13 0) (>= a__18 0) (>= a__19 0) (>= a__22 0) (>= a__23 0) (>= a__26 0) (>= a__27 0) (>= a__32 0) (>= a__30 0) (>= a__35 0) (>= a__36 0) (>= a__39 0) (>= a__40 0) (>= a__43 0) (>= a__44 0) (>= a__47 0) (>= a__48 0) (>= a__53 0) (>= a__51 0) (>= a__55 0) (>= a__58 0) (>= a__61 0) (>= a__62 0) (>= a__65 0) (>= a__66 0) (>= a__69 0) (>= a__70 0) (>= a__73 0) (>= a__74 0) (>= a__77 0) (>= a__14 0) (>= a__78 0) (>= a__4 0) (>= a__79 0) (>= a__80 0) (>= a__81 0) (>= a__82 0) (>= a__83 0) (>= a__7 0) (>= a__84 0) (>= a__85 0) (>= a__86 0) (>= a__87 0) (>= a__88 0) (>= a__31 0) (>= a__89 0) (>= a__91 0) (>= a__92 0) (>= a__94 0) (>= a__95 0) (>= a__96 0) (>= a__97 0) (>= a__52 0) (>= a__98 0) (>= a__100 0) (>= a__101 0) (>= a__103 0) (>= a__104 0) (>= a__105 0) (>= a__107 0) (>= a__108 0) (>= a__109 0) (>= a__110 0) (>= a__111 0) (>= a__113 0) (>= a__114 0) (>= a__115 0) (>= a__117 0) (>= a__118 0) (>= a__120 0) (>= a__121 0) (>= a__122 0) (>= a__124 0) (>= a__125 0) (>= a__126 0) (>= a__128 0) (>= a__129 0) (>= a__130 0) (>= a__132 0) (>= a__134 0) (>= a__135 0) (>= a__136 0) (>= a__138 0) (>= a__139 0) (>= a__140 0) (>= a__142 0) (>= a__143 0) (>= a__144 0) (>= a__146 0) (>= a__147 0) (>= a__148 0) (>= a__150 0) (>= a__151 0) (>= a__152 0) (>= a__154 0) (>= a__155 0) (>= a__156 0) (>= a__157 0) (>= a__158 0) (>= a__159 0) (>= a__160 0) (>= a__161 0) (>= a__162 0) (>= a__163 0) (>= a__164 0) (>= a__165 0) (>= a__167 0) (>= a__168 0) (>= a__169 0) (>= a__170 0) (>= a__171 0) (>= a__172 0) (>= a__173 0) (>= a__174 0) (>= a__175 0) (>= a__176 0) (>= a__177 0) (>= a__178 0) (>= a__179 0) (>= a__180 0) (>= a__181 0) (>= a__182 0) (>= a__183 0) (>= a__184 0) (>= a__185 0) (>= a__186 0) (>= a__187 0) (>= a__188 0) (>= a__189 0) (>= a__190 0) (>= a__191 0) (>= a__192 0) (>= a__193 0) (>= a__194 0) (>= a__195 0) (>= a__196 0) (>= a__197 0) (>= a__198 0) (>= a__199 0) (>= a__200 0) (>= a__201 0) (>= a__202 0) (>= a__203 0) (>= a__204 0) (>= a__205 0) (>= a__206 0) (>= a__207 0) (>= a__208 0) (>= a__209 0) (>= a__210 0) (>= a__211 0) (>= a__212 0) (>= a__213 0) (>= a__214 0) (>= a__215 0) (>= a__216 0) (>= a__217 0) (>= a__218 0) (>= a__219 0) (>= a__220 0) (>= a__221 0) (>= a__222 0) (>= a__223 0) (>= a__224 0) (>= a__225 0) (>= a__226 0) (>= a__227 0) (>= a__228 0) (>= a__229 0) (>= a__230 0) (>= a__231 0) (>= a__232 0) (>= a__233 0) (>= a__234 0) (>= a__235 0) (>= a__236 0) (>= a__237 0) (>= a__238 0) (>= a__240 0) (>= a__241 0) (>= a__242 0) (>= a__243 0) (>= a__244 0) (>= a__246 0) (>= a__247 0) (>= a__248 0) (>= a__249 0) (>= a__250 0) (>= a__251 0) (>= a__252 0) (>= a__253 0) (>= a__254 0) (>= a__255 0) (>= a__256 0) (>= a__257 0) (>= a__258 0) (>= a__259 0) (>= a__260 0) (>= a__261 0) (>= a__1 0) (>= a__5 0) (>= a__10 0) (>= a__16 0) (>= a__20 0) (>= a__24 0) (>= a__28 0) (>= a__33 0) (>= a__37 0) (>= a__41 0) (>= a__45 0) (>= a__49 0) (>= a__54 0) (>= a__56 0) (>= a__59 0) (>= a__63 0) (>= a__67 0) (>= a__71 0) (>= a__75 0)))
(check-sat)
;;(get-assignment)
;;(get-model)
(exit)
